(set-info :smt-lib-version 2.6)
(set-logic QF_FP)
(set-info :source "|
Generated by the tool Ultimate Automizer [1,2] which implements
an automata theoretic approach [3] to software verification.

This SMT script belongs to a set of SMT scripts that was generated by
applying Ultimate Automizer to benchmarks [4] from the SV-COMP 2019 [5,6].
This script might _not_ contain all SMT commands that are used by
Ultimate Automizer. In order to satisfy the restrictions of
the SMT-COMP we have to drop e.g., the commands for getting
values (resp. models), unsatisfiable cores and interpolants.

2019-04-27, Matthias Heizmann (heizmann@informatik.uni-freiburg.de)

[1] https://ultimate.informatik.uni-freiburg.de/automizer/
[2] Matthias Heizmann, Yu-Fang Chen, Daniel Dietsch, Marius Greitschus,
     Jochen Hoenicke, Yong Li, Alexander Nutz, Betim Musa, Christian
     Schilling, Tanja Schindler, Andreas Podelski: Ultimate Automizer
     and the Search for Perfect Interpolants - (Competition Contribution).
     TACAS (2) 2018: 447-451
[3] Matthias Heizmann, Jochen Hoenicke, Andreas Podelski: Software Model
     Checking for People Who Love Automata. CAV 2013:36-52
[4] https://github.com/sosy-lab/sv-benchmarks
[5] Dirk Beyer: Automatic Verification of C and Java Programs: SV-COMP 2019.
     TACAS (3) 2019: 133-155
[6] https://sv-comp.sosy-lab.org/2019/
|")
(set-info :license "https://creativecommons.org/licenses/by/4.0/")
(set-info :category "industrial")
(set-info :status sat)
(declare-fun v_currentRoundingMode_65_const_1497110688 () RoundingMode)
(declare-fun v___kernel_sin_~z~3_1_const_-1523861289 () (_ FloatingPoint 11 53))
(declare-fun v_~S6_ksin~0_4_const_-1857488689 () (_ FloatingPoint 11 53))
(declare-fun v_~S5_ksin~0_4_const_-1659746776 () (_ FloatingPoint 11 53))
(declare-fun v_~S4_ksin~0_4_const_-2002397431 () (_ FloatingPoint 11 53))
(declare-fun v_~S3_ksin~0_4_const_-194042774 () (_ FloatingPoint 11 53))
(declare-fun v_~S2_ksin~0_4_const_-533285557 () (_ FloatingPoint 11 53))
(declare-fun v___kernel_sin_~r~2_1_const_-1529186066 () (_ FloatingPoint 11 53))
(declare-fun v___kernel_sin_~x_3_const_822903706 () (_ FloatingPoint 11 53))
(declare-fun v___kernel_sin_~v~0_1_const_-1528689048 () (_ FloatingPoint 11 53))
(assert (and (= v___kernel_sin_~r~2_1_const_-1529186066 (fp.add v_currentRoundingMode_65_const_1497110688 v_~S2_ksin~0_4_const_-533285557 (fp.mul v_currentRoundingMode_65_const_1497110688 v___kernel_sin_~z~3_1_const_-1523861289 (fp.add v_currentRoundingMode_65_const_1497110688 v_~S3_ksin~0_4_const_-194042774 (fp.mul v_currentRoundingMode_65_const_1497110688 v___kernel_sin_~z~3_1_const_-1523861289 (fp.add v_currentRoundingMode_65_const_1497110688 v_~S4_ksin~0_4_const_-2002397431 (fp.mul v_currentRoundingMode_65_const_1497110688 v___kernel_sin_~z~3_1_const_-1523861289 (fp.add v_currentRoundingMode_65_const_1497110688 v_~S5_ksin~0_4_const_-1659746776 (fp.mul v_currentRoundingMode_65_const_1497110688 v___kernel_sin_~z~3_1_const_-1523861289 v_~S6_ksin~0_4_const_-1857488689))))))))) (= v___kernel_sin_~z~3_1_const_-1523861289 (fp.mul v_currentRoundingMode_65_const_1497110688 v___kernel_sin_~x_3_const_822903706 v___kernel_sin_~x_3_const_822903706)) (= v___kernel_sin_~v~0_1_const_-1528689048 (fp.mul v_currentRoundingMode_65_const_1497110688 v___kernel_sin_~z~3_1_const_-1523861289 v___kernel_sin_~x_3_const_822903706))))
(check-sat)
(exit)
